JulietBench/Juliet_Based_Patch_Bench/linux/CWE-189-Numeric-Errors/CVE_2014_2889_a03ffcf873fe0f2565386ca8ef832144c42e67fa/Resultbpf_jit_compile_Snippet_patch2EQ.smt2
; benchmark generated from python API
(set-info :status unknown)
(declare-fun rdi () (_ BitVec 64))
(declare-fun R () (_ BitVec 32))
(declare-fun rsi () (_ BitVec 64))
(assert
 (let ((?x6 ((_ extract 31 0) rdi)))
 (let ((?x159 (bvadd (_ bv2 32) ?x6)))
 (let (($x163 (= R ?x159)))
 (let ((?x36 (bvadd (_ bv6 32) ?x6)))
 (let (($x165 (= R ?x36)))
 (let ((?x8 ((_ extract 31 0) rsi)))
 (let (($x43 (bvslt (_ bv127 32) ?x8)))
 (let (($x167 (and $x43 $x165)))
 (let (($x13 (bvsge (_ bv127 32) ?x8)))
 (let (($x47 (bvsgt (_ bv4294967168 32) ?x8)))
 (let (($x166 (and $x47 $x13 $x165)))
 (let (($x52 (bvsle (_ bv4294967168 32) ?x8)))
 (let (($x164 (and $x52 $x13 $x163)))
 (let (($x168 (or $x164 $x166 $x167)))
 (and $x168 $x163))))))))))))))))
(check-sat)
